15 16 17 52 0 33 2 13 35 4 6 5 47 31 46 55 34 1 3 48 29 27 49 43 44 28 53 45 30 26 25 24 42 21 50 23 54 22 41 40 20 18 39 38 10 51 14 12 7 32 8 36 9 37 11 19 15 
1947
72
15 16 17 52 0 33 2 13 35 4 6 5 47 55 34 1 3 48 31 27 23 54 49 44 53 43 28 45 30 46 29 26 25 24 42 21 50 41 22 40 20 18 39 14 12 51 10 7 32 8 36 9 37 11 38 19 15 
1914
106
15 16 17 52 0 33 2 13 35 4 6 5 47 45 30 46 55 34 1 3 48 31 27 23 54 49 44 53 43 28 29 26 25 24 42 50 41 21 22 40 20 18 39 51 14 12 10 7 32 8 36 37 9 11 38 19 15 
1903
116
15 16 17 52 0 33 2 13 35 4 6 5 47 45 30 46 55 34 1 3 48 31 27 23 54 49 43 53 44 28 29 26 25 24 42 21 41 50 22 40 20 18 39 51 12 14 10 7 32 8 36 9 37 11 38 19 15 
1900
119
15 16 12 51 14 17 52 0 33 2 13 35 4 6 5 47 31 55 34 1 3 48 44 28 53 43 54 27 49 45 30 46 29 26 25 42 22 41 21 50 23 24 20 40 18 39 38 10 32 7 8 36 9 37 11 19 15 
1897
249
15 17 16 12 14 52 0 33 2 13 35 4 6 5 47 46 55 34 1 3 48 31 44 28 53 43 54 27 49 45 30 29 26 25 42 22 41 21 50 23 24 20 40 18 39 10 51 32 8 7 36 9 37 11 38 19 15 
1879
256
15 16 17 52 0 33 55 34 1 2 14 51 12 13 35 4 6 5 48 3 31 47 28 53 43 44 45 30 46 29 26 25 24 42 22 41 21 50 23 54 27 49 20 40 18 39 38 10 7 32 8 36 37 9 11 19 15 
1874
716
15 16 17 0 33 1 3 48 31 46 55 34 2 14 12 13 35 4 6 5 47 44 28 53 43 54 27 49 45 30 29 26 52 25 42 21 22 41 50 23 24 40 20 18 39 51 10 32 8 7 36 9 37 11 38 19 15 
1868
998
15 16 17 52 0 33 1 2 13 35 4 6 5 47 44 53 43 28 29 26 25 24 42 21 22 40 20 41 50 23 54 27 49 45 30 46 55 34 31 48 3 7 12 39 38 51 10 14 32 8 36 9 37 11 18 19 15 
1860
2948
15 16 17 26 52 0 33 2 13 35 6 5 47 48 3 31 44 53 43 28 29 25 24 42 22 40 20 41 21 50 23 54 27 49 45 30 46 55 34 1 4 7 32 8 36 9 37 11 10 51 14 12 39 38 18 19 15 
1856
3204
15 16 17 52 0 33 2 13 35 7 4 6 5 47 3 48 31 29 26 25 24 20 40 42 22 41 21 50 23 54 27 49 43 53 44 28 45 30 46 55 34 1 14 12 39 38 51 10 32 8 36 37 9 11 18 19 15 
1838
8270
15 16 17 52 0 33 2 13 35 7 4 6 5 47 3 48 31 29 26 25 24 20 40 42 22 41 21 50 23 54 27 49 43 53 44 28 45 30 46 55 34 1 14 12 39 38 51 10 32 8 36 37 9 11 18 19 15 
1838
8270



